(declare-fun var0 () String)
(assert (RegexIn var0 (RegexConcat (RegexStar (RegexPlus (Str2Reg "pp"))) (RegexConcat (RegexStar (RegexStar (Str2Reg "ooo"))) (RegexConcat (RegexStar (RegexUnion (Str2Reg "mm") (Str2Reg "n"))) (RegexConcat (RegexStar (RegexStar (Str2Reg "l"))) (RegexConcat (RegexPlus (RegexStar (Str2Reg "kkk"))) (RegexConcat (RegexPlus (RegexStar (Str2Reg "jjj"))) (RegexConcat (RegexPlus (RegexPlus (Str2Reg "ii"))) (RegexConcat (RegexPlus (RegexPlus (Str2Reg "h"))) (RegexConcat (RegexStar (RegexStar (Str2Reg "ggg"))) (RegexConcat (RegexPlus (RegexUnion (Str2Reg "e") (Str2Reg "ff"))) (RegexConcat (RegexPlus (RegexStar (Str2Reg "dd"))) (RegexConcat (RegexStar (RegexUnion (Str2Reg "bbb") (Str2Reg "c"))) (RegexConcat (RegexPlus (RegexPlus (Str2Reg "aa"))) (RegexConcat (RegexUnion (RegexUnion (Str2Reg "7") (Str2Reg "8")) (RegexStar (Str2Reg "99"))) (RegexConcat (RegexUnion (RegexStar (Str2Reg "5")) (RegexPlus (Str2Reg "666"))) (RegexConcat (RegexStar (RegexPlus (Str2Reg "44"))) (RegexConcat (RegexPlus (RegexUnion (Str2Reg "22") (Str2Reg "333"))) (RegexConcat (RegexPlus (RegexPlus (Str2Reg "11"))) (RegexPlus (RegexPlus (Str2Reg "000")))))))))))))))))))))))
(check-sat)